analyze/results_flowersnark/final_miplib_symretope_if_extended_generating_set_cpx_v802__settings_final_nosym_norestarts__3__square31.mps.gz.sol
solution status: optimal solution found
objective value:                                   15
x_1_1_4                                             1 	(obj:1)
x_1_5_7                                             1 	(obj:1)
x_1_12_7                                            1 	(obj:1)
x_1_19_13                                           1 	(obj:1)
x_5_1_4                                             1 	(obj:1)
x_8_5_1                                             1 	(obj:1)
x_8_6_7                                             1 	(obj:1)
x_8_13_6                                            1 	(obj:1)
x_9_1_5                                             1 	(obj:1)
x_14_1_5                                            1 	(obj:1)
x_14_13_1                                           1 	(obj:1)
x_14_14_18                                          1 	(obj:1)
x_15_6_4                                            1 	(obj:1)
x_15_10_4                                           1 	(obj:1)
x_19_1_13                                           1 	(obj:1)
y_18                                                1 	(obj:0)
y_13                                                2 	(obj:0)
y_7                                                 3 	(obj:0)
y_6                                                 1 	(obj:0)
y_5                                                 2 	(obj:0)
y_4                                                 4 	(obj:0)
y_1                                                 2 	(obj:0)
